NAME: A-n5-k5
COMMENT: (Augerat et al, Min no of trucks: 5, Optimal value: 784)
TYPE: CVRP
DIMENSION: 5
EDGE_WEIGHT_TYPE: EUC_2D 
CAPACITY: 100
NODE_COORD_SECTION 
 1 8 2
 2 9 4
 3 5 5
 4 4 8
 5 1 7
 DEMAND_SECTION 
1 0 
2 19 
3 21 
4 6 
5 19 
DEPOT_SECTION 
 1  
 -1  
EOF 
